# Any line starting with the # character is a comment line
#! Sample HF/cc-pVDZ H2O computation

memory 600 mb

molecule h2o {
  O 
  H 1 0.96
  H 1 0.96 2 104.5
}

set basis cc-pVDZ
dft_functional = {
  "lcom_functionals":{
    "B3LYP": 0.2,
    "B97-0": 0.8
  }
}

print(psi4.driver.procedures['energy'].keys())
energy('scf_lcom', dft_functional=dft_functional)
